;(set-option :produce-unsat-cores true )
(set-logic ALL_SUPPORTED )
(declare-sort A$ 0 )
(declare-sort A_llist_set$ 0 )
(declare-sort A_llist_a_llist_fun$ 0 )
(declare-codatatypes ()((A_llist$ (lNil$ )(lCons$ (lhd$ A$ )(ltl$ A_llist$ )))))
(declare-fun xs$ ()A_llist$ )
(declare-fun acc$ ()A_llist$ )
(declare-fun lnull$ (A_llist$ )Bool )
(declare-fun member$ (A_llist$ A_llist_set$ )Bool )
(declare-fun fun_app$ (A_llist_a_llist_fun$ A_llist$ )A_llist$ )
(declare-fun lmirror$ ()A_llist_a_llist_fun$ )
(declare-fun lmirror_aux$ (A_llist$ )A_llist_a_llist_fun$ )
(assert (! (not (= (lnull$ (fun_app$ (lmirror_aux$ acc$ )xs$ ))(and (lnull$ xs$ )(lnull$ acc$ )))):named a0 ))
(assert (! (forall ((?v0 A_llist$ )(?v1 A_llist$ ))(= (not (lnull$ (fun_app$ (lmirror_aux$ ?v0 )?v1 )))(or (not (lnull$ ?v1 ))(not (lnull$ ?v0 ))))):named a1 ))
(assert (! (forall ((?v0 A_llist$ )(?v1 A_llist$ ))(= (lnull$ (fun_app$ (lmirror_aux$ ?v0 )?v1 ))(and (lnull$ ?v1 )(lnull$ ?v0 )))):named a2 ))
(assert (! (forall ((?v0 A_llist$ )(?v1 A_llist$ ))(=> (and (=> (and (lnull$ ?v0 )(lnull$ ?v1 ))false )(=> (or (not (lnull$ ?v0 ))(not (lnull$ ?v1 )))false ))false )):named a3 ))
(assert (! (forall ((?v0 A_llist$ )(?v1 A_llist$ ))(=> (or (not (lnull$ ?v0 ))(not (lnull$ ?v1 )))(not (lnull$ (fun_app$ (lmirror_aux$ ?v1 )?v0 ))))):named a4 ))
(assert (! (forall ((?v0 A_llist$ )(?v1 A_llist$ ))(=> (and (lnull$ ?v0 )(lnull$ ?v1 ))(lnull$ (fun_app$ (lmirror_aux$ ?v1 )?v0 )))):named a5 ))
(assert (! (forall ((?v0 A_llist$ )(?v1 A_llist$ ))(=> (and (=> (or (lnull$ ?v0 )(lnull$ ?v1 ))false )(=> (and (not (lnull$ ?v0 ))(not (lnull$ ?v1 )))false ))false )):named a6 ))
(assert (! (forall ((?v0 A_llist_set$ ))(=> (and (=> (forall ((?v1 A_llist$ ))(=> (member$ ?v1 ?v0 )(lnull$ ?v1 )))false )(=> (not (forall ((?v1 A_llist$ ))(=> (member$ ?v1 ?v0 )(lnull$ ?v1 ))))false ))false )):named a7 ))
(assert (! (forall ((?v0 A_llist$ )(?v1 A_llist$ ))(=> (and (=> (and (lnull$ ?v0 )(lnull$ ?v1 ))false )(=> (or (not (lnull$ ?v0 ))(not (lnull$ ?v1 )))false ))false )):named a8 ))
(assert (! (forall ((?v0 A_llist$ ))(=> (and (=> (lnull$ ?v0 )false )(=> (not (lnull$ ?v0 ))false ))false )):named a9 ))
(assert (! (forall ((?v0 A_llist$ )(?v1 A_llist$ ))(! (=> (and (lnull$ ?v0 )(lnull$ ?v1 ))(= (fun_app$ (lmirror_aux$ ?v1 )?v0 )lNil$ )):pattern ((fun_app$ (lmirror_aux$ ?v1 )?v0 )))):named a10 ))
(assert (! (forall ((?v0 A_llist$ ))(! (= (fun_app$ (lmirror_aux$ ?v0 )lNil$ )?v0 ):pattern ((lmirror_aux$ ?v0 )))):named a11 ))
(assert (! (forall ((?v0 A_llist$ )(?v1 A$ )(?v2 A_llist$ ))(! (= (fun_app$ (lmirror_aux$ ?v0 )(lCons$ ?v1 ?v2 ))(lCons$ ?v1 (fun_app$ (lmirror_aux$ (lCons$ ?v1 ?v0 ))?v2 ))):pattern ((fun_app$ (lmirror_aux$ ?v0 )(lCons$ ?v1 ?v2 ))))):named a12 ))
(assert (! (= lmirror$ (lmirror_aux$ lNil$ )):named a13 ))
(check-sat )
;(get-unsat-core )
